25
26.28 19.7
25.68 21.73
24.09 23.11
22 23.41
20.07 22.53
18.93 20.76
18.93 18.64
20.07 16.87
22 15.99
24.09 16.29
25.68 17.67
8.11 11.4
7.89 12.35
7.29 13.1
6.42 13.53
5.44 13.53
4.57 13.1
3.97 12.35
3.75 11.4
3.97 10.45
4.57 9.7
5.44 9.27
6.42 9.27
7.29 9.7
7.89 10.45
